InboundTrucks  = 10;
OutboundTrucks = 10;
InboundDoors   = 8;
OutboundDoors  = 8;
ReleaseTime    = [30,75,69,16,47,117,77,60,80,74];
UnloadTime     = [23,18,32,23,21,10,12,32,26,20];
LoadTime       = [23,25,15,18,23,15,13,23,15,11];
TransferTime   = [| 5,0,0,0,0,0,0,0,0,1 | 0,3,0,9,5,0,9,1,6,0 | 0,12,1,0,0,5,0,0,0,0 | 1,0,5,4,0,0,6,7,0,2 | 0,6,0,0,3,0,0,6,0,0 | 0,0,2,0,0,6,0,0,2,0 | 2,0,0,4,0,0,0,6,0,2 | 0,0,0,0,3,12,0,6,0,0 | 7,4,1,0,0,0,0,0,4,0 | 2,0,0,0,0,0,0,0,0,5 |];
